p cnf 15 26
11 -12 -15 -5 0
-4 5 1 -11 0
-1 2 -10 5 0
-8 -15 14 12 -11 0
2 -1 -14 0
14 2 4 8 -7 1 0
10 -3 -2 0
-3 9 -2 8 0
6 -7 5 -14 -1 15 10 0
-12 8 15 2 -6 11 0
-13 12 -2 -3 -15 -8 -14 -5 -6 0
12 -1 4 -11 -2 15 -9 -7 0
5 2 -4 0
7 6 -14 -2 -15 0
-8 -9 12 -3 -1 -14 5 -4 0
12 1 8 -10 -2 3 -14 0
-14 12 2 -15 1 -5 6 -11 -8 0
10 -5 12 7 -15 -1 4 13 3 0
-13 14 -6 0
-8 -6 10 -11 3 7 14 0
-3 7 -8 -14 -2 0
7 6 11 1 0
2 -15 13 0
-10 -14 15 -12 13 0
-9 15 7 -4 3 1 0
-7 -3 2 -5 -4 -10 6 9 0
